myproject/instances/20nodes/rnd40_20.tsp
NAME : rnd40_20.tsp
TYPE : TSP
DIMENSION : 20
EDGE_WEIGHT_TYPE : EUC_2D
NODE_COORD_SECTION
1 968 612
2 943 435
3 178 225
4 816 327
5 824 320
6 39 784
7 12 565
8 595 764
9 107 311
10 654 461
11 851 159
12 54 282
13 12 321
14 191 588
15 888 740
16 219 98
17 832 789
18 887 560
19 631 619
20 265 722
