myproject/instances/20nodes/rnd40_20.opt.tour
NAME : rnd40_20.tsp.tsp.opt.tour
TYPE : TOUR
DIMENSION : 20
TOUR_SECTION
1
12
2
16
3
19
5
17
9
10
7
8
6
15
13
20
4
14
11
18
-1